100 8
484 771
619 329
360 514
824 758
831 133
784 599
389 629
218 287
353 536
687 575
564 617
876 286
513 167
712 202
726 671
244 316
790 677
253 522
270 494
49 483
370 599
269 574
732 274
635 262
600 318
910 500
623 512
879 514
189 320
532 232
474 675
601 670
441 641
875 454
831 707
540 654
688 303
69 674
742 625
58 585
179 438
923 588
300 378
286 443
814 486
67 663
555 340
745 741
559 675
345 522
725 479
822 220
65 654
669 323
606 499
626 229
475 214
587 248
107 552
778 412
356 519
220 484
246 477
900 116
314 620
753 142
349 455
651 442
723 540
928 613
781 670
538 650
389 556
734 279
191 823
198 582
689 278
576 243
428 581
154 961
122 428
898 252
858 603
247 331
718 390
880 519
525 714
390 501
246 443
147 624
883 551
693 500
754 395
842 197
439 367
901 262
791 275
500 766
388 366
594 236
